1630492200
1630506600
1630578600
1630593000
1630665000
1630678440
1631010600
1631024580
1631097000
1631111520
1631183400
1631197980
1631269800
1631287620
1631529000
1631546580
1631615400
1631629800
1631701800
1631718960
1631788200
1631802540
1631874600

1631889180
1632133800
1632148440
1632220200
1632235140
1632306600
1632322980
1632393000
1632410040
1632479400
1632493980
1632738600
1632753240
1632825000
1632840180
1632911400
1632925740
1632997800
1633012320
